n_res = 4;
rc = [ 0, 0, 0, 0 ];
n_tasks = 30;
d = [ 2, 8, 1, 10, 10, 1, 4, 3, 8, 6, 8, 6, 7, 5, 4, 7, 7, 8, 1, 10, 3, 2, 3, 8, 4, 4, 1, 8, 2, 2 ];
rr = [| 0, 0, 0, 0, 0, 0, 0, 0, 0, 0, 0, 0, 0, 0, 0, 0, 0, 0, 0, 0, 0, 0, 0, 0, 0, 0, 0, 0, 0, 0
      | 0, 0, 0, 0, 0, 0, 0, 0, 0, 0, 0, 0, 0, 0, 0, 0, 0, 0, 0, 0, 0, 0, 0, 0, 0, 0, 0, 0, 0, 0
      | 0, 0, 0, 0, 0, 0, 0, 0, 0, 0, 0, 0, 0, 0, 0, 0, 0, 0, 0, 0, 0, 0, 0, 0, 0, 0, 0, 0, 0, 0
      | 0, 0, 0, 0, 0, 0, 0, 0, 0, 0, 0, 0, 0, 0, 0, 0, 0, 0, 0, 0, 0, 0, 0, 0, 0, 0, 0, 0, 0, 0 |];
suc = [ { 5, 15, 16 },
       { 4, 11, 22 },
       { 10, 12, 21 },
       { 6, 7, 8 },
       { 24 },
       { 13, 26, 28 },
       { 9 },
       { 14 },
       { 17, 20 },
       { 15 },
       { 16, 17 },
       { 28 },
       { 14, 19, 21 },
       { 16 },
       { 18 },
       { 23 },
       { 26 },
       { 25 },
       { 20 },
       { 29 },
       { 23 },
       { 24 },
       { 24 },
       { 30 },
       { 28, 30 },
       { 27 },
       { 29 },
       {  },
       {  },
       {  } ];
